50
0 10 28
1 47 24
2 10 7
3 44 28
4 43 21
5 47 21
6 11 4
7 26 29
8 20 5
9 50 28
10 26 30
11 13 25
12 4 19
13 44 10
14 18 29
15 43 28
16 15 16
17 47 18
18 8 8
19 0 11
20 8 3
21 28 23
22 23 1
23 15 0
24 43 30
25 41 8
26 43 14
27 25 18
28 39 13
29 48 9
30 1 18
31 7 0
32 38 3
33 25 1
34 32 17
35 25 11
36 38 6
37 25 30
38 34 1
39 1 11
40 34 15
41 45 15
42 32 15
43 37 18
44 27 20
45 49 25
46 19 17
47 33 20
48 12 4
49 37 26
